data;

param w := 19;
param n := 14;
param min_h := 19;
param max_h := 32;

set BLOCKS := 1 2 3 4 5 6 7 8 9 10 11 12 13 14 ;

param:	width	height :=
	1	3	19
	2	3	13
	3	3	11
	4	4	8
	5	3	10
	6	3	9
	7	4	6
	8	3	8
	9	3	7
	10	4	5
	11	3	6
	12	3	5
	13	3	4
	14	3	3;